pair_coeff 3 4 sigmoidal ${GO} ${alpha} 0.994712105263 1.98942447368
pair_coeff 3 5 sigmoidal ${GO} ${alpha} 1.62477473684 3.24954921053
pair_coeff 3 6 sigmoidal ${GO2} ${alpha} 2.22006052632 4.44012105263
pair_coeff 3 9 sigmoidal ${GO2} ${alpha} 2.22006052632 4.44012105263
pair_coeff 3 10 sigmoidal ${GO2} ${alpha} 2.22006052632 4.44012105263
pair_coeff 3 38 sigmoidal ${GO2} ${alpha} 2.22006052632 4.44012105263
pair_coeff 3 39 sigmoidal ${GO2} ${alpha} 2.22006052632 4.44012105263
pair_coeff 3 40 sigmoidal ${GO} ${alpha} 2.10293578947 4.20587184211
pair_coeff 3 41 sigmoidal ${GO} ${alpha} 1.52541394737 3.05082789474
pair_coeff 3 42 sigmoidal ${GO} ${alpha} 1.447145 2.89429026316
pair_coeff 3 43 sigmoidal ${GO} ${alpha} 1.72093421053 3.44186842105
pair_coeff 3 44 sigmoidal ${GO2} ${alpha} 2.22006052632 4.44012105263
pair_coeff 3 56 sigmoidal ${GO2} ${alpha} 2.22006052632 4.44012105263
pair_coeff 3 57 sigmoidal ${GO2} ${alpha} 2.22006052632 4.44012105263
pair_coeff 3 85 sigmoidal ${GO2} ${alpha} 2.22006052632 4.44012105263
pair_coeff 3 86 sigmoidal ${GO} ${alpha} 2.19276763158 4.38553526316
pair_coeff 3 87 sigmoidal ${GO} ${alpha} 1.97184526316 3.94369078947
pair_coeff 3 88 sigmoidal ${GO} ${alpha} 1.37131631579 2.74263236842
pair_coeff 3 89 sigmoidal ${GO2} ${alpha} 2.22006052632 4.44012105263
pair_coeff 3 90 sigmoidal ${GO2} ${alpha} 2.22006052632 4.44012105263
pair_coeff 4 5 sigmoidal ${GO} ${alpha} 0.994747368421 1.98949447368
pair_coeff 4 6 sigmoidal ${GO} ${alpha} 1.78781421053 3.57562842105
pair_coeff 4 7 sigmoidal ${GO2} ${alpha} 2.30460421053 4.60920868421
pair_coeff 4 8 sigmoidal ${GO2} ${alpha} 2.30460421053 4.60920868421
pair_coeff 4 9 sigmoidal ${GO2} ${alpha} 2.30460421053 4.60920868421
pair_coeff 4 10 sigmoidal ${GO2} ${alpha} 2.30460421053 4.60920868421
pair_coeff 4 34 sigmoidal ${GO2} ${alpha} 2.30460421053 4.60920868421
pair_coeff 4 35 sigmoidal ${GO2} ${alpha} 2.30460421053 4.60920868421
pair_coeff 4 38 sigmoidal ${GO2} ${alpha} 2.30460421053 4.60920868421
pair_coeff 4 39 sigmoidal ${GO} ${alpha} 1.98149894737 3.96299789474
pair_coeff 4 40 sigmoidal ${GO} ${alpha} 1.35901947368 2.71803894737
pair_coeff 4 41 sigmoidal ${GO} ${alpha} 1.07763815789 2.15527657895
pair_coeff 4 42 sigmoidal ${GO} ${alpha} 1.62418289474 3.24836552632
pair_coeff 4 43 sigmoidal ${GO} ${alpha} 2.06448447368 4.12896894737
pair_coeff 4 44 sigmoidal ${GO2} ${alpha} 2.30460421053 4.60920868421
pair_coeff 4 56 sigmoidal ${GO2} ${alpha} 2.30460421053 4.60920868421
pair_coeff 4 57 sigmoidal ${GO} ${alpha} 2.29279394737 4.58558789474
pair_coeff 4 86 sigmoidal ${GO2} ${alpha} 2.30460421053 4.60920868421
pair_coeff 4 87 sigmoidal ${GO2} ${alpha} 2.30460421053 4.60920868421
pair_coeff 4 88 sigmoidal ${GO} ${alpha} 2.18271078947 4.36542131579
pair_coeff 4 89 sigmoidal ${GO2} ${alpha} 2.30460421053 4.60920868421
pair_coeff 4 90 sigmoidal ${GO2} ${alpha} 2.30460421053 4.60920868421
pair_coeff 5 6 sigmoidal ${GO} ${alpha} 0.994542894737 1.98908552632
pair_coeff 5 7 sigmoidal ${GO} ${alpha} 1.70890947368 3.41781894737
pair_coeff 5 8 sigmoidal ${GO} ${alpha} 2.15708026316 4.31416052632
pair_coeff 5 9 sigmoidal ${GO} ${alpha} 1.65892763158 3.31785526316
pair_coeff 5 10 sigmoidal ${GO} ${alpha} 1.51972105263 3.03944184211
pair_coeff 5 11 sigmoidal ${GO2} ${alpha} 2.33305078947 4.66610184211
pair_coeff 5 12 sigmoidal ${GO2} ${alpha} 2.33305078947 4.66610184211
pair_coeff 5 13 sigmoidal ${GO2} ${alpha} 2.33305078947 4.66610184211
pair_coeff 5 14 sigmoidal ${GO2} ${alpha} 2.33305078947 4.66610184211
pair_coeff 5 31 sigmoidal ${GO2} ${alpha} 2.33305078947 4.66610184211
pair_coeff 5 34 sigmoidal ${GO2} ${alpha} 2.33305078947 4.66610184211
pair_coeff 5 35 sigmoidal ${GO2} ${alpha} 2.33305078947 4.66610184211
pair_coeff 5 38 sigmoidal ${GO2} ${alpha} 2.33305078947 4.66610184211
pair_coeff 5 39 sigmoidal ${GO} ${alpha} 2.14444289474 4.28888578947
pair_coeff 5 40 sigmoidal ${GO} ${alpha} 1.26144157895 2.52288315789
pair_coeff 5 41 sigmoidal ${GO} ${alpha} 1.63894973684 3.27789921053
pair_coeff 5 42 sigmoidal ${GO} ${alpha} 2.04322026316 4.08644052632
pair_coeff 5 43 sigmoidal ${GO2} ${alpha} 2.33305078947 4.66610184211
pair_coeff 5 44 sigmoidal ${GO2} ${alpha} 2.33305078947 4.66610184211
pair_coeff 5 56 sigmoidal ${GO2} ${alpha} 2.33305078947 4.66610184211
pair_coeff 5 57 sigmoidal ${GO} ${alpha} 2.33292026316 4.66584078947
pair_coeff 5 87 sigmoidal ${GO2} ${alpha} 2.33305078947 4.66610184211
pair_coeff 5 88 sigmoidal ${GO2} ${alpha} 2.33305078947 4.66610184211
pair_coeff 5 89 sigmoidal ${GO2} ${alpha} 2.33305078947 4.66610184211
pair_coeff 5 90 sigmoidal ${GO2} ${alpha} 2.33305078947 4.66610184211
pair_coeff 6 7 sigmoidal ${GO} ${alpha} 0.993448421053 1.98689684211
pair_coeff 6 8 sigmoidal ${GO} ${alpha} 1.42651263158 2.85302552632
pair_coeff 6 9 sigmoidal ${GO} ${alpha} 1.32585578947 2.65171184211
pair_coeff 6 10 sigmoidal ${GO} ${alpha} 1.58679526316 3.17359078947
pair_coeff 6 11 sigmoidal ${GO} ${alpha} 2.19895921053 4.39791815789
pair_coeff 6 12 sigmoidal ${GO2} ${alpha} 2.44916736842 4.898335
pair_coeff 6 13 sigmoidal ${GO2} ${alpha} 2.44916736842 4.898335
pair_coeff 6 14 sigmoidal ${GO2} ${alpha} 2.44916736842 4.898335
pair_coeff 6 31 sigmoidal ${GO2} ${alpha} 2.44916736842 4.898335
pair_coeff 6 34 sigmoidal ${GO2} ${alpha} 2.44916736842 4.898335
pair_coeff 6 35 sigmoidal ${GO2} ${alpha} 2.44916736842 4.898335
pair_coeff 6 38 sigmoidal ${GO2} ${alpha} 2.44916736842 4.898335
pair_coeff 6 39 sigmoidal ${GO} ${alpha} 2.43189921053 4.86379842105
pair_coeff 6 40 sigmoidal ${GO} ${alpha} 1.76744710526 3.53489421053
pair_coeff 6 41 sigmoidal ${GO} ${alpha} 2.42370578947 4.84741131579
pair_coeff 6 42 sigmoidal ${GO2} ${alpha} 2.44916736842 4.898335
pair_coeff 6 57 sigmoidal ${GO2} ${alpha} 2.44916736842 4.898335
pair_coeff 6 125 sigmoidal ${GO2} ${alpha} 2.44916736842 4.898335
pair_coeff 6 126 sigmoidal ${GO2} ${alpha} 2.44916736842 4.898335
pair_coeff 6 128 sigmoidal ${GO2} ${alpha} 2.44916736842 4.898335
pair_coeff 6 129 sigmoidal ${GO2} ${alpha} 2.44916736842 4.898335
pair_coeff 7 8 sigmoidal ${GO} ${alpha} 0.994800263158 1.98960052632
pair_coeff 7 9 sigmoidal ${GO} ${alpha} 1.49528078947 2.99056184211
pair_coeff 7 10 sigmoidal ${GO} ${alpha} 1.50494447368 3.00988921053
pair_coeff 7 11 sigmoidal ${GO} ${alpha} 1.67630315789 3.35260631579
pair_coeff 7 12 sigmoidal ${GO} ${alpha} 2.33234131579 4.66468263158
pair_coeff 7 13 sigmoidal ${GO2} ${alpha} 2.44999421053 4.89998868421
pair_coeff 7 14 sigmoidal ${GO2} ${alpha} 2.44999421053 4.89998868421
pair_coeff 7 27 sigmoidal ${GO2} ${alpha} 2.44999421053 4.89998868421
pair_coeff 7 28 sigmoidal ${GO2} ${alpha} 2.44999421053 4.89998868421
pair_coeff 7 30 sigmoidal ${GO2} ${alpha} 2.44999421053 4.89998868421
pair_coeff 7 31 sigmoidal ${GO} ${alpha} 1.84658526316 3.69317052632
pair_coeff 7 32 sigmoidal ${GO} ${alpha} 2.37149842105 4.74299684211
pair_coeff 7 33 sigmoidal ${GO2} ${alpha} 2.44999421053 4.89998868421
pair_coeff 7 34 sigmoidal ${GO2} ${alpha} 2.44999421053 4.89998868421
pair_coeff 7 35 sigmoidal ${GO} ${alpha} 2.10868947368 4.21737894737
pair_coeff 7 36 sigmoidal ${GO2} ${alpha} 2.44999421053 4.89998868421
pair_coeff 7 38 sigmoidal ${GO2} ${alpha} 2.44999421053 4.89998868421
pair_coeff 7 39 sigmoidal ${GO} ${alpha} 2.44426131579 4.88852263158
pair_coeff 7 40 sigmoidal ${GO} ${alpha} 1.93595210526 3.87190421053
pair_coeff 7 41 sigmoidal ${GO2} ${alpha} 2.44999421053 4.89998868421
pair_coeff 7 57 sigmoidal ${GO2} ${alpha} 2.44999421053 4.89998868421
pair_coeff 7 123 sigmoidal ${GO2} ${alpha} 2.44999421053 4.89998868421
pair_coeff 7 124 sigmoidal ${GO2} ${alpha} 2.44999421053 4.89998868421
pair_coeff 7 125 sigmoidal ${GO} ${alpha} 1.82808289474 3.65616578947
pair_coeff 7 126 sigmoidal ${GO} ${alpha} 1.93575736842 3.87151447368
pair_coeff 7 127 sigmoidal ${GO2} ${alpha} 2.44999421053 4.89998868421
pair_coeff 7 128 sigmoidal ${GO2} ${alpha} 2.44999421053 4.89998868421
pair_coeff 7 129 sigmoidal ${GO} ${alpha} 2.27523342105 4.55046710526
pair_coeff 7 130 sigmoidal ${GO2} ${alpha} 2.44999421053 4.89998868421
pair_coeff 7 131 sigmoidal ${GO2} ${alpha} 2.44999421053 4.89998868421
pair_coeff 8 9 sigmoidal ${GO} ${alpha} 0.994709736842 1.98941973684
pair_coeff 8 10 sigmoidal ${GO} ${alpha} 1.46110657895 2.92221315789
pair_coeff 8 11 sigmoidal ${GO} ${alpha} 1.33270763158 2.66541552632
pair_coeff 8 12 sigmoidal ${GO} ${alpha} 1.63089578947 3.26179131579
pair_coeff 8 13 sigmoidal ${GO} ${alpha} 2.26471236842 4.52942473684
pair_coeff 8 14 sigmoidal ${GO2} ${alpha} 2.28307868421 4.56615763158
pair_coeff 8 15 sigmoidal ${GO2} ${alpha} 2.28307868421 4.56615763158
pair_coeff 8 27 sigmoidal ${GO2} ${alpha} 2.28307868421 4.56615763158
pair_coeff 8 28 sigmoidal ${GO2} ${alpha} 2.28307868421 4.56615763158
pair_coeff 8 30 sigmoidal ${GO2} ${alpha} 2.28307868421 4.56615763158
pair_coeff 8 31 sigmoidal ${GO2} ${alpha} 2.28307868421 4.56615763158
pair_coeff 8 32 sigmoidal ${GO2} ${alpha} 2.28307868421 4.56615763158
pair_coeff 8 35 sigmoidal ${GO2} ${alpha} 2.28307868421 4.56615763158
pair_coeff 8 40 sigmoidal ${GO2} ${alpha} 2.28307868421 4.56615763158
pair_coeff 8 123 sigmoidal ${GO2} ${alpha} 2.28307868421 4.56615763158
pair_coeff 8 124 sigmoidal ${GO2} ${alpha} 2.28307868421 4.56615763158
pair_coeff 8 125 sigmoidal ${GO} ${alpha} 2.08651105263 4.17302210526
pair_coeff 8 126 sigmoidal ${GO} ${alpha} 1.67686947368 3.35373921053
pair_coeff 8 127 sigmoidal ${GO} ${alpha} 2.22259789474 4.44519605263
pair_coeff 8 128 sigmoidal ${GO} ${alpha} 1.97252894737 3.94505763158
pair_coeff 8 129 sigmoidal ${GO} ${alpha} 1.45052026316 2.90104026316
pair_coeff 8 130 sigmoidal ${GO} ${alpha} 2.06021526316 4.12043026316
pair_coeff 8 131 sigmoidal ${GO} ${alpha} 2.24679736842 4.49359473684
pair_coeff 9 10 sigmoidal ${GO} ${alpha} 0.994898947368 1.98979789474
pair_coeff 9 11 sigmoidal ${GO} ${alpha} 1.41279684211 2.82559368421
pair_coeff 9 12 sigmoidal ${GO} ${alpha} 1.34391868421 2.68783710526
pair_coeff 9 13 sigmoidal ${GO} ${alpha} 1.61912105263 3.23824210526
pair_coeff 9 14 sigmoidal ${GO} ${alpha} 2.26284973684 4.52569921053
pair_coeff 9 15 sigmoidal ${GO2} ${alpha} 2.287465 4.57493026316
pair_coeff 9 16 sigmoidal ${GO2} ${alpha} 2.287465 4.57493026316
pair_coeff 9 31 sigmoidal ${GO2} ${alpha} 2.287465 4.57493026316
pair_coeff 9 40 sigmoidal ${GO2} ${alpha} 2.287465 4.57493026316
pair_coeff 9 90 sigmoidal ${GO2} ${alpha} 2.287465 4.57493026316
pair_coeff 9 125 sigmoidal ${GO2} ${alpha} 2.287465 4.57493026316
pair_coeff 9 126 sigmoidal ${GO2} ${alpha} 2.287465 4.57493026316
pair_coeff 9 128 sigmoidal ${GO2} ${alpha} 2.287465 4.57493026316
pair_coeff 9 129 sigmoidal ${GO} ${alpha} 2.188055 4.37611026316
pair_coeff 9 130 sigmoidal ${GO2} ${alpha} 2.287465 4.57493026316
pair_coeff 9 131 sigmoidal ${GO2} ${alpha} 2.287465 4.57493026316
pair_coeff 10 11 sigmoidal ${GO} ${alpha} 0.994824210526 1.98964868421
pair_coeff 10 12 sigmoidal ${GO} ${alpha} 1.39867157895 2.79734315789
pair_coeff 10 13 sigmoidal ${GO} ${alpha} 1.27839315789 2.55678605263
pair_coeff 10 14 sigmoidal ${GO} ${alpha} 1.54266157895 3.08532315789
pair_coeff 10 15 sigmoidal ${GO} ${alpha} 2.15136842105 4.30273657895
pair_coeff 10 16 sigmoidal ${GO} ${alpha} 2.49513078947 4.99026157895
pair_coeff 10 17 sigmoidal ${GO2} ${alpha} 2.49888842105 4.99777684211
pair_coeff 10 19 sigmoidal ${GO2} ${alpha} 2.49888842105 4.99777684211
pair_coeff 10 20 sigmoidal ${GO2} ${alpha} 2.49888842105 4.99777684211
pair_coeff 10 27 sigmoidal ${GO2} ${alpha} 2.49888842105 4.99777684211
pair_coeff 10 28 sigmoidal ${GO2} ${alpha} 2.49888842105 4.99777684211
pair_coeff 10 30 sigmoidal ${GO} ${alpha} 2.44382578947 4.88765184211
pair_coeff 10 31 sigmoidal ${GO} ${alpha} 1.82305763158 3.64611526316
pair_coeff 10 32 sigmoidal ${GO2} ${alpha} 2.49888842105 4.99777684211
pair_coeff 10 33 sigmoidal ${GO2} ${alpha} 2.49888842105 4.99777684211
pair_coeff 10 34 sigmoidal ${GO} ${alpha} 2.40163026316 4.80326026316
pair_coeff 10 35 sigmoidal ${GO2} ${alpha} 2.49888842105 4.99777684211
pair_coeff 10 39 sigmoidal ${GO2} ${alpha} 2.49888842105 4.99777684211
pair_coeff 10 40 sigmoidal ${GO} ${alpha} 2.00066894737 4.00133763158
pair_coeff 10 41 sigmoidal ${GO2} ${alpha} 2.49888842105 4.99777684211
pair_coeff 10 42 sigmoidal ${GO2} ${alpha} 2.49888842105 4.99777684211
pair_coeff 10 57 sigmoidal ${GO2} ${alpha} 2.49888842105 4.99777684211
pair_coeff 10 58 sigmoidal ${GO2} ${alpha} 2.49888842105 4.99777684211
pair_coeff 10 88 sigmoidal ${GO2} ${alpha} 2.49888842105 4.99777684211
pair_coeff 10 89 sigmoidal ${GO2} ${alpha} 2.49888842105 4.99777684211
pair_coeff 10 90 sigmoidal ${GO} ${alpha} 2.35533605263 4.71067184211
pair_coeff 10 91 sigmoidal ${GO2} ${alpha} 2.49888842105 4.99777684211
pair_coeff 10 94 sigmoidal ${GO2} ${alpha} 2.49888842105 4.99777684211
pair_coeff 10 125 sigmoidal ${GO2} ${alpha} 2.49888842105 4.99777684211
pair_coeff 10 126 sigmoidal ${GO2} ${alpha} 2.49888842105 4.99777684211
pair_coeff 10 129 sigmoidal ${GO2} ${alpha} 2.49888842105 4.99777684211
pair_coeff 10 130 sigmoidal ${GO2} ${alpha} 2.49888842105 4.99777684211
pair_coeff 10 131 sigmoidal ${GO2} ${alpha} 2.49888842105 4.99777684211
pair_coeff 11 12 sigmoidal ${GO} ${alpha} 0.994825 1.98965
pair_coeff 11 13 sigmoidal ${GO} ${alpha} 1.42233842105 2.84467684211
pair_coeff 11 14 sigmoidal ${GO} ${alpha} 1.38718210526 2.77436394737
pair_coeff 11 15 sigmoidal ${GO} ${alpha} 1.59051657895 3.18103315789
pair_coeff 11 16 sigmoidal ${GO} ${alpha} 2.24652973684 4.49305947368
pair_coeff 11 17 sigmoidal ${GO2} ${alpha} 2.35651921053 4.71303842105
pair_coeff 11 18 sigmoidal ${GO2} ${alpha} 2.35651921053 4.71303842105
pair_coeff 11 19 sigmoidal ${GO2} ${alpha} 2.35651921053 4.71303842105
pair_coeff 11 20 sigmoidal ${GO} ${alpha} 2.28353078947 4.56706131579
pair_coeff 11 26 sigmoidal ${GO2} ${alpha} 2.35651921053 4.71303842105
pair_coeff 11 27 sigmoidal ${GO} ${alpha} 1.77154815789 3.54309631579
pair_coeff 11 28 sigmoidal ${GO} ${alpha} 1.98025315789 3.96050605263
pair_coeff 11 29 sigmoidal ${GO2} ${alpha} 2.35651921053 4.71303842105
pair_coeff 11 30 sigmoidal ${GO} ${alpha} 2.09846078947 4.19692157895
pair_coeff 11 31 sigmoidal ${GO} ${alpha} 1.58653763158 3.173075
pair_coeff 11 32 sigmoidal ${GO2} ${alpha} 2.35651921053 4.71303842105
pair_coeff 11 33 sigmoidal ${GO2} ${alpha} 2.35651921053 4.71303842105
pair_coeff 11 34 sigmoidal ${GO2} ${alpha} 2.35651921053 4.71303842105
pair_coeff 11 35 sigmoidal ${GO2} ${alpha} 2.35651921053 4.71303842105
pair_coeff 11 40 sigmoidal ${GO2} ${alpha} 2.35651921053 4.71303842105
pair_coeff 11 90 sigmoidal ${GO2} ${alpha} 2.35651921053 4.71303842105
pair_coeff 11 94 sigmoidal ${GO2} ${alpha} 2.35651921053 4.71303842105
pair_coeff 11 122 sigmoidal ${GO2} ${alpha} 2.35651921053 4.71303842105
pair_coeff 11 123 sigmoidal ${GO2} ${alpha} 2.35651921053 4.71303842105
pair_coeff 11 124 sigmoidal ${GO2} ${alpha} 2.35651921053 4.71303842105
pair_coeff 11 125 sigmoidal ${GO} ${alpha} 2.15915789474 4.31831578947
pair_coeff 11 126 sigmoidal ${GO} ${alpha} 1.73675236842 3.47350473684
pair_coeff 11 127 sigmoidal ${GO2} ${alpha} 2.35651921053 4.71303842105
pair_coeff 11 128 sigmoidal ${GO2} ${alpha} 2.35651921053 4.71303842105
pair_coeff 11 129 sigmoidal ${GO} ${alpha} 2.06891578947 4.13783157895
pair_coeff 11 130 sigmoidal ${GO2} ${alpha} 2.35651921053 4.71303842105
pair_coeff 11 131 sigmoidal ${GO} ${alpha} 2.04084157895 4.08168315789
pair_coeff 12 13 sigmoidal ${GO} ${alpha} 0.993194210526 1.98638842105
pair_coeff 12 14 sigmoidal ${GO} ${alpha} 1.49624789474 2.99249552632
pair_coeff 12 15 sigmoidal ${GO} ${alpha} 1.33590447368 2.67180894737
pair_coeff 12 16 sigmoidal ${GO} ${alpha} 1.61180526316 3.22361078947
pair_coeff 12 17 sigmoidal ${GO} ${alpha} 2.25297947368 4.50595921053
pair_coeff 12 18 sigmoidal ${GO2} ${alpha} 2.31735631579 4.63471263158
pair_coeff 12 19 sigmoidal ${GO2} ${alpha} 2.31735631579 4.63471263158
pair_coeff 12 20 sigmoidal ${GO2} ${alpha} 2.31735631579 4.63471263158
pair_coeff 12 27 sigmoidal ${GO2} ${alpha} 2.31735631579 4.63471263158
pair_coeff 12 28 sigmoidal ${GO2} ${alpha} 2.31735631579 4.63471263158
pair_coeff 12 30 sigmoidal ${GO2} ${alpha} 2.31735631579 4.63471263158
pair_coeff 12 31 sigmoidal ${GO2} ${alpha} 2.31735631579 4.63471263158
pair_coeff 12 90 sigmoidal ${GO2} ${alpha} 2.31735631579 4.63471263158
pair_coeff 12 125 sigmoidal ${GO2} ${alpha} 2.31735631579 4.63471263158
pair_coeff 12 126 sigmoidal ${GO2} ${alpha} 2.31735631579 4.63471263158
pair_coeff 12 127 sigmoidal ${GO2} ${alpha} 2.31735631579 4.63471263158
pair_coeff 12 128 sigmoidal ${GO2} ${alpha} 2.31735631579 4.63471263158
pair_coeff 12 129 sigmoidal ${GO} ${alpha} 2.05652921053 4.11305868421
pair_coeff 12 130 sigmoidal ${GO} ${alpha} 2.00623026316 4.01246052632
pair_coeff 12 131 sigmoidal ${GO} ${alpha} 1.55601342105 3.11202684211
pair_coeff 13 14 sigmoidal ${GO} ${alpha} 0.994975 1.98995
pair_coeff 13 15 sigmoidal ${GO} ${alpha} 1.34580815789 2.69161657895
pair_coeff 13 16 sigmoidal ${GO} ${alpha} 1.28027447368 2.56054921053
pair_coeff 13 17 sigmoidal ${GO} ${alpha} 1.59990552632 3.19981131579
pair_coeff 13 18 sigmoidal ${GO} ${alpha} 2.33638684211 4.67277342105
pair_coeff 13 19 sigmoidal ${GO} ${alpha} 2.35399421053 4.70798842105
pair_coeff 13 20 sigmoidal ${GO2} ${alpha} 2.43278578947 4.86557131579
pair_coeff 13 27 sigmoidal ${GO2} ${alpha} 2.43278578947 4.86557131579
pair_coeff 13 30 sigmoidal ${GO2} ${alpha} 2.43278578947 4.86557131579
pair_coeff 13 31 sigmoidal ${GO2} ${alpha} 2.43278578947 4.86557131579
pair_coeff 13 40 sigmoidal ${GO2} ${alpha} 2.43278578947 4.86557131579
pair_coeff 13 88 sigmoidal ${GO2} ${alpha} 2.43278578947 4.86557131579
pair_coeff 13 89 sigmoidal ${GO2} ${alpha} 2.43278578947 4.86557131579
pair_coeff 13 90 sigmoidal ${GO} ${alpha} 2.13105289474 4.26210605263
pair_coeff 13 91 sigmoidal ${GO} ${alpha} 2.39057736842 4.78115473684
pair_coeff 13 93 sigmoidal ${GO2} ${alpha} 2.43278578947 4.86557131579
pair_coeff 13 94 sigmoidal ${GO2} ${alpha} 2.43278578947 4.86557131579
pair_coeff 13 126 sigmoidal ${GO2} ${alpha} 2.43278578947 4.86557131579
pair_coeff 13 129 sigmoidal ${GO2} ${alpha} 2.43278578947 4.86557131579
pair_coeff 13 130 sigmoidal ${GO2} ${alpha} 2.43278578947 4.86557131579
pair_coeff 13 131 sigmoidal ${GO2} ${alpha} 2.43278578947 4.86557131579
pair_coeff 14 15 sigmoidal ${GO} ${alpha} 0.994671842105 1.98934342105
pair_coeff 14 16 sigmoidal ${GO} ${alpha} 1.44422921053 2.88845868421
pair_coeff 14 17 sigmoidal ${GO} ${alpha} 1.27622526316 2.55245026316
pair_coeff 14 18 sigmoidal ${GO} ${alpha} 1.72468868421 3.44937763158
pair_coeff 14 19 sigmoidal ${GO} ${alpha} 1.44827631579 2.89655289474
pair_coeff 14 20 sigmoidal ${GO} ${alpha} 1.86504289474 3.73008578947
pair_coeff 14 21 sigmoidal ${GO2} ${alpha} 2.43556421053 4.87112842105
pair_coeff 14 22 sigmoidal ${GO2} ${alpha} 2.43556421053 4.87112842105
pair_coeff 14 25 sigmoidal ${GO2} ${alpha} 2.43556421053 4.87112842105
pair_coeff 14 26 sigmoidal ${GO2} ${alpha} 2.43556421053 4.87112842105
pair_coeff 14 27 sigmoidal ${GO} ${alpha} 1.94840842105 3.89681684211
pair_coeff 14 28 sigmoidal ${GO2} ${alpha} 2.43556421053 4.87112842105
pair_coeff 14 29 sigmoidal ${GO2} ${alpha} 2.43556421053 4.87112842105
pair_coeff 14 30 sigmoidal ${GO} ${alpha} 2.08400210526 4.16800421053
pair_coeff 14 31 sigmoidal ${GO} ${alpha} 2.13778973684 4.27557973684
pair_coeff 14 32 sigmoidal ${GO2} ${alpha} 2.43556421053 4.87112842105
pair_coeff 14 34 sigmoidal ${GO2} ${alpha} 2.43556421053 4.87112842105
pair_coeff 14 40 sigmoidal ${GO2} ${alpha} 2.43556421053 4.87112842105
pair_coeff 14 57 sigmoidal ${GO2} ${alpha} 2.43556421053 4.87112842105
pair_coeff 14 58 sigmoidal ${GO2} ${alpha} 2.43556421053 4.87112842105
pair_coeff 14 89 sigmoidal ${GO2} ${alpha} 2.43556421053 4.87112842105
pair_coeff 14 90 sigmoidal ${GO} ${alpha} 2.11295157895 4.22590342105
pair_coeff 14 91 sigmoidal ${GO} ${alpha} 2.27182263158 4.543645
pair_coeff 14 92 sigmoidal ${GO2} ${alpha} 2.43556421053 4.87112842105
pair_coeff 14 93 sigmoidal ${GO2} ${alpha} 2.43556421053 4.87112842105
pair_coeff 14 94 sigmoidal ${GO} ${alpha} 1.91946421053 3.83892815789
pair_coeff 14 95 sigmoidal ${GO2} ${alpha} 2.43556421053 4.87112842105
pair_coeff 14 97 sigmoidal ${GO2} ${alpha} 2.43556421053 4.87112842105
pair_coeff 14 98 sigmoidal ${GO2} ${alpha} 2.43556421053 4.87112842105
pair_coeff 14 126 sigmoidal ${GO2} ${alpha} 2.43556421053 4.87112842105
pair_coeff 14 131 sigmoidal ${GO2} ${alpha} 2.43556421053 4.87112842105
pair_coeff 15 16 sigmoidal ${GO} ${alpha} 0.994882631579 1.98976526316
pair_coeff 15 17 sigmoidal ${GO} ${alpha} 1.32944342105 2.65888657895
pair_coeff 15 18 sigmoidal ${GO} ${alpha} 1.42357210526 2.84714447368
pair_coeff 15 19 sigmoidal ${GO} ${alpha} 1.40601210526 2.81202421053
pair_coeff 15 20 sigmoidal ${GO} ${alpha} 1.39095526316 2.78191052632
pair_coeff 15 21 sigmoidal ${GO2} ${alpha} 2.35026210526 4.70052447368
pair_coeff 15 22 sigmoidal ${GO2} ${alpha} 2.35026210526 4.70052447368
pair_coeff 15 25 sigmoidal ${GO2} ${alpha} 2.35026210526 4.70052447368
pair_coeff 15 26 sigmoidal ${GO2} ${alpha} 2.35026210526 4.70052447368
pair_coeff 15 27 sigmoidal ${GO} ${alpha} 1.81459710526 3.62919421053
pair_coeff 15 28 sigmoidal ${GO2} ${alpha} 2.35026210526 4.70052447368
pair_coeff 15 29 sigmoidal ${GO2} ${alpha} 2.35026210526 4.70052447368
pair_coeff 15 30 sigmoidal ${GO2} ${alpha} 2.35026210526 4.70052447368
pair_coeff 15 31 sigmoidal ${GO2} ${alpha} 2.35026210526 4.70052447368
pair_coeff 15 90 sigmoidal ${GO2} ${alpha} 2.35026210526 4.70052447368
pair_coeff 15 91 sigmoidal ${GO2} ${alpha} 2.35026210526 4.70052447368
pair_coeff 15 94 sigmoidal ${GO2} ${alpha} 2.35026210526 4.70052447368
pair_coeff 15 126 sigmoidal ${GO2} ${alpha} 2.35026210526 4.70052447368
pair_coeff 15 129 sigmoidal ${GO2} ${alpha} 2.35026210526 4.70052447368
pair_coeff 15 130 sigmoidal ${GO2} ${alpha} 2.35026210526 4.70052447368
pair_coeff 15 131 sigmoidal ${GO} ${alpha} 2.05985315789 4.11970605263
pair_coeff 16 17 sigmoidal ${GO} ${alpha} 0.994788947368 1.98957763158
pair_coeff 16 18 sigmoidal ${GO} ${alpha} 1.52386894737 3.04773789474
pair_coeff 16 19 sigmoidal ${GO} ${alpha} 2.02132631579 4.04265263158
pair_coeff 16 20 sigmoidal ${GO} ${alpha} 2.25178763158 4.50357526316
pair_coeff 16 21 sigmoidal ${GO2} ${alpha} 2.47292289474 4.94584578947
pair_coeff 16 22 sigmoidal ${GO2} ${alpha} 2.47292289474 4.94584578947
pair_coeff 16 27 sigmoidal ${GO2} ${alpha} 2.47292289474 4.94584578947
pair_coeff 16 89 sigmoidal ${GO2} ${alpha} 2.47292289474 4.94584578947
pair_coeff 16 90 sigmoidal ${GO2} ${alpha} 2.47292289474 4.94584578947
pair_coeff 16 91 sigmoidal ${GO2} ${alpha} 2.47292289474 4.94584578947
pair_coeff 16 94 sigmoidal ${GO2} ${alpha} 2.47292289474 4.94584578947
pair_coeff 16 131 sigmoidal ${GO} ${alpha} 2.43603684211 4.87207368421
pair_coeff 17 18 sigmoidal ${GO} ${alpha} 0.994858684211 1.98971710526
pair_coeff 17 19 sigmoidal ${GO} ${alpha} 1.53286473684 3.06572947368
pair_coeff 17 20 sigmoidal ${GO} ${alpha} 2.18590394737 4.37180789474
pair_coeff 17 21 sigmoidal ${GO2} ${alpha} 2.43029921053 4.86059842105
pair_coeff 17 22 sigmoidal ${GO2} ${alpha} 2.43029921053 4.86059842105
pair_coeff 17 27 sigmoidal ${GO2} ${alpha} 2.43029921053 4.86059842105
pair_coeff 17 30 sigmoidal ${GO2} ${alpha} 2.43029921053 4.86059842105
pair_coeff 17 89 sigmoidal ${GO2} ${alpha} 2.43029921053 4.86059842105
pair_coeff 17 90 sigmoidal ${GO} ${alpha} 2.29103157895 4.58206315789
pair_coeff 17 91 sigmoidal ${GO} ${alpha} 1.88021605263 3.76043210526
pair_coeff 17 92 sigmoidal ${GO2} ${alpha} 2.43029921053 4.86059842105
pair_coeff 17 93 sigmoidal ${GO2} ${alpha} 2.43029921053 4.86059842105
pair_coeff 17 94 sigmoidal ${GO} ${alpha} 1.87884210526 3.75768394737
pair_coeff 17 95 sigmoidal ${GO} ${alpha} 2.19758078947 4.39516131579
pair_coeff 17 96 sigmoidal ${GO2} ${alpha} 2.43029921053 4.86059842105
pair_coeff 17 97 sigmoidal ${GO2} ${alpha} 2.43029921053 4.86059842105
pair_coeff 17 98 sigmoidal ${GO2} ${alpha} 2.43029921053 4.86059842105
pair_coeff 18 19 sigmoidal ${GO} ${alpha} 0.994999210526 1.98999815789
pair_coeff 18 20 sigmoidal ${GO} ${alpha} 1.58198736842 3.16397473684
pair_coeff 18 21 sigmoidal ${GO} ${alpha} 2.11211342105 4.22422684211
pair_coeff 18 22 sigmoidal ${GO} ${alpha} 1.78078894737 3.56157789474
pair_coeff 18 23 sigmoidal ${GO2} ${alpha} 2.45063 4.90126026316
pair_coeff 18 24 sigmoidal ${GO2} ${alpha} 2.45063 4.90126026316
pair_coeff 18 25 sigmoidal ${GO2} ${alpha} 2.45063 4.90126026316
pair_coeff 18 26 sigmoidal ${GO2} ${alpha} 2.45063 4.90126026316
pair_coeff 18 27 sigmoidal ${GO2} ${alpha} 2.45063 4.90126026316
pair_coeff 18 30 sigmoidal ${GO2} ${alpha} 2.45063 4.90126026316
pair_coeff 18 90 sigmoidal ${GO2} ${alpha} 2.45063 4.90126026316
pair_coeff 18 91 sigmoidal ${GO2} ${alpha} 2.45063 4.90126026316
pair_coeff 18 94 sigmoidal ${GO} ${alpha} 2.20897263158 4.417945
pair_coeff 18 95 sigmoidal ${GO} ${alpha} 2.39131263158 4.78262526316
pair_coeff 18 97 sigmoidal ${GO2} ${alpha} 2.45063 4.90126026316
pair_coeff 18 98 sigmoidal ${GO} ${alpha} 2.37323105263 4.74646210526
pair_coeff 19 20 sigmoidal ${GO} ${alpha} 0.994778157895 1.98955657895
pair_coeff 19 21 sigmoidal ${GO} ${alpha} 1.52260578947 3.04521184211
pair_coeff 19 22 sigmoidal ${GO} ${alpha} 1.26979736842 2.53959447368
pair_coeff 19 23 sigmoidal ${GO} ${alpha} 2.22216263158 4.44432526316
pair_coeff 19 24 sigmoidal ${GO2} ${alpha} 2.34619368421 4.69238736842
pair_coeff 19 25 sigmoidal ${GO} ${alpha} 2.07405236842 4.14810447368
pair_coeff 19 26 sigmoidal ${GO} ${alpha} 2.07635236842 4.152705
pair_coeff 19 27 sigmoidal ${GO} ${alpha} 1.67232184211 3.34464394737
pair_coeff 19 28 sigmoidal ${GO2} ${alpha} 2.34619368421 4.69238736842
pair_coeff 19 29 sigmoidal ${GO2} ${alpha} 2.34619368421 4.69238736842
pair_coeff 19 30 sigmoidal ${GO} ${alpha} 2.05656421053 4.11312842105
pair_coeff 19 31 sigmoidal ${GO2} ${alpha} 2.34619368421 4.69238736842
pair_coeff 19 90 sigmoidal ${GO2} ${alpha} 2.34619368421 4.69238736842
pair_coeff 19 91 sigmoidal ${GO2} ${alpha} 2.34619368421 4.69238736842
pair_coeff 19 93 sigmoidal ${GO2} ${alpha} 2.34619368421 4.69238736842
pair_coeff 19 94 sigmoidal ${GO} ${alpha} 2.00731657895 4.01463289474
pair_coeff 19 95 sigmoidal ${GO2} ${alpha} 2.34619368421 4.69238736842
pair_coeff 19 96 sigmoidal ${GO2} ${alpha} 2.34619368421 4.69238736842
pair_coeff 19 97 sigmoidal ${GO2} ${alpha} 2.34619368421 4.69238736842
pair_coeff 19 98 sigmoidal ${GO} ${alpha} 2.05743789474 4.11487578947
pair_coeff 19 99 sigmoidal ${GO2} ${alpha} 2.34619368421 4.69238736842
pair_coeff 19 101 sigmoidal ${GO2} ${alpha} 2.34619368421 4.69238736842
pair_coeff 19 102 sigmoidal ${GO2} ${alpha} 2.34619368421 4.69238736842
pair_coeff 20 21 sigmoidal ${GO} ${alpha} 0.994854473684 1.98970894737
pair_coeff 20 22 sigmoidal ${GO} ${alpha} 1.47489078947 2.94978131579
pair_coeff 20 23 sigmoidal ${GO2} ${alpha} 2.18032315789 4.36064631579
pair_coeff 20 24 sigmoidal ${GO} ${alpha} 2.12888657895 4.25777342105
pair_coeff 20 25 sigmoidal ${GO} ${alpha} 1.78813710526 3.57627394737
pair_coeff 20 26 sigmoidal ${GO} ${alpha} 1.40310421053 2.80620815789
pair_coeff 20 27 sigmoidal ${GO} ${alpha} 1.10500684211 2.21001342105
pair_coeff 20 28 sigmoidal ${GO} ${alpha} 2.092755 4.18551
pair_coeff 20 29 sigmoidal ${GO2} ${alpha} 2.18032315789 4.36064631579
pair_coeff 20 30 sigmoidal ${GO} ${alpha} 2.13969210526 4.27938421053
pair_coeff 20 31 sigmoidal ${GO2} ${alpha} 2.18032315789 4.36064631579
pair_coeff 20 94 sigmoidal ${GO2} ${alpha} 2.18032315789 4.36064631579
pair_coeff 20 98 sigmoidal ${GO2} ${alpha} 2.18032315789 4.36064631579
pair_coeff 20 123 sigmoidal ${GO2} ${alpha} 2.18032315789 4.36064631579
pair_coeff 20 126 sigmoidal ${GO2} ${alpha} 2.18032315789 4.36064631579
pair_coeff 20 131 sigmoidal ${GO2} ${alpha} 2.18032315789 4.36064631579
pair_coeff 21 22 sigmoidal ${GO} ${alpha} 0.994896315789 1.98979236842
pair_coeff 21 23 sigmoidal ${GO} ${alpha} 1.58210473684 3.16420921053
pair_coeff 21 24 sigmoidal ${GO} ${alpha} 1.17315368421 2.34630763158
pair_coeff 21 25 sigmoidal ${GO} ${alpha} 1.18352815789 2.36705657895
pair_coeff 21 26 sigmoidal ${GO} ${alpha} 1.21547868421 2.43095736842
pair_coeff 21 27 sigmoidal ${GO} ${alpha} 1.63022605263 3.26045210526
pair_coeff 21 28 sigmoidal ${GO2} ${alpha} 2.09350605263 4.18701236842
pair_coeff 21 29 sigmoidal ${GO2} ${alpha} 2.09350605263 4.18701236842
pair_coeff 21 30 sigmoidal ${GO2} ${alpha} 2.09350605263 4.18701236842
pair_coeff 21 98 sigmoidal ${GO2} ${alpha} 2.09350605263 4.18701236842
pair_coeff 21 101 sigmoidal ${GO2} ${alpha} 2.09350605263 4.18701236842
pair_coeff 21 106 sigmoidal ${GO2} ${alpha} 2.09350605263 4.18701236842
pair_coeff 21 107 sigmoidal ${GO2} ${alpha} 2.09350605263 4.18701236842
pair_coeff 22 23 sigmoidal ${GO} ${alpha} 0.995031315789 1.99006289474
pair_coeff 22 24 sigmoidal ${GO} ${alpha} 1.34225236842 2.684505
pair_coeff 22 25 sigmoidal ${GO} ${alpha} 1.49058236842 2.98116447368
pair_coeff 22 26 sigmoidal ${GO} ${alpha} 1.96990184211 3.93980368421
pair_coeff 22 27 sigmoidal ${GO} ${alpha} 2.19283078947 4.38566131579
pair_coeff 22 28 sigmoidal ${GO2} ${alpha} 2.36363815789 4.72727605263
pair_coeff 22 29 sigmoidal ${GO2} ${alpha} 2.36363815789 4.72727605263
pair_coeff 22 30 sigmoidal ${GO2} ${alpha} 2.36363815789 4.72727605263
pair_coeff 22 94 sigmoidal ${GO2} ${alpha} 2.36363815789 4.72727605263
pair_coeff 22 95 sigmoidal ${GO2} ${alpha} 2.36363815789 4.72727605263
pair_coeff 22 97 sigmoidal ${GO2} ${alpha} 2.36363815789 4.72727605263
pair_coeff 22 98 sigmoidal ${GO} ${alpha} 1.98201026316 3.96402026316
pair_coeff 22 99 sigmoidal ${GO2} ${alpha} 2.36363815789 4.72727605263
pair_coeff 22 100 sigmoidal ${GO2} ${alpha} 2.36363815789 4.72727605263
pair_coeff 22 101 sigmoidal ${GO} ${alpha} 2.27267052632 4.54534078947
pair_coeff 22 102 sigmoidal ${GO} ${alpha} 2.32669394737 4.65338789474
pair_coeff 22 106 sigmoidal ${GO2} ${alpha} 2.36363815789 4.72727605263